WARNING: for repeatability, setting FPU to use double precision
============================[ Problem Statistics ]=============================
|                                                                             |
|  Number of variables:           275                                         |
|  Number of clauses:            1215                                         |
|  Parse time:                   0.00 s                                       |
|                                                                             |
============================[ Search Statistics ]==============================
| Conflicts |          ORIGINAL         |          LEARNT          | Progress |
|           |    Vars  Clauses Literals |    Limit  Clauses Lit/Cl |          |
===============================================================================
|       100 |     275     1215     4005 |      445      100      7 |  0.001 % |
===============================================================================
restarts              : 2
conflicts             : 121            (121121 /sec)
decisions             : 442            (0.00 % random) (442442 /sec)
propagations          : 4025           (4029029 /sec)
conflict literals     : 932            (2.92 % deleted)
Memory used           : 6.00 MB
CPU time              : 0.000999 s

SATISFIABLE
